row=9;
column=9;
Board=[|4,0,0,5,9,0,0,0,3|0,0,3,0,0,8,5,7,0|0,8,0,0,0,4,1,0,0|0,0,5,0,0,0,0,0,9|0,0,0,0,0,0,0,4,8|0,0,0,9,0,0,3,5,0|0,0,0,6,2,0,0,0,0|0,6,0,2,0,0,0,0,0|3,0,0,0,0,9,6,2,1|];
Region=[|1,1,1,2,2,2,2,3,3|1,1,1,2,2,3,3,3,3|1,1,1,2,2,2,3,3,3|4,4,4,5,5,5,6,6,6|4,4,4,4,5,5,6,6,6|4,4,5,5,8,5,5,6,6|7,8,8,8,8,8,9,6,9|7,7,7,7,8,9,9,9,9|7,7,7,7,8,8,9,9,9|];
OE=[|0,1,1,1,1,0,0,0,1|0,1,1,1,0,0,1,1,0|1,0,0,1,1,0,1,1,0|1,1,1,0,0,0,0,1,1|0,0,1,1,1,1,1,0,0|0,0,0,1,1,1,1,1,0|1,1,0,0,0,1,0,1,1|1,0,0,0,1,1,1,0,1|1,1,1,0,0,1,0,0,1|];
